10
1 0 0 408
2 0 62 68
3 0 181 205
4 0 306 324
5 0 214 217
6 0 51 61
7 0 102 129
8 0 175 186
9 0 250 263
10 0 3 23
1 2 19
1 3 17
1 4 34
1 5 7
1 6 20
1 7 10
1 8 17
1 9 28
1 10 15
2 1 19
2 3 10
2 4 41
2 5 26
2 6 3
2 7 27
2 8 25
2 9 15
2 10 17
3 1 17
3 2 10
3 4 47
3 5 23
3 6 13
3 7 26
3 8 15
3 9 25
3 10 22
4 1 34
4 2 41
4 3 47
4 5 36
4 6 39
4 7 25
4 8 51
4 9 36
4 10 24
5 1 7
5 2 26
5 3 23
5 4 36
5 6 27
5 7 11
5 8 17
5 9 35
5 10 22
6 1 20
6 2 3
6 3 13
6 4 39
6 5 27
6 7 26
6 8 27
6 9 12
6 10 15
7 1 10
7 2 27
7 3 26
7 4 25
7 5 11
7 6 26
7 8 26
7 9 31
7 10 14
8 1 17
8 2 25
8 3 15
8 4 51
8 5 17
8 6 27
8 7 26
8 9 39
8 10 31
9 1 28
9 2 15
9 3 25
9 4 36
9 5 35
9 6 12
9 7 31
9 8 39
9 10 17
10 1 15
10 2 17
10 3 22
10 4 24
10 5 22
10 6 15
10 7 14
10 8 31
10 9 17
